50
142
148
190
141
163
176
150
145
134
180
134
193
198
126
125
153
143
146
169
172
134
145
184
164
162
194
176
167
181
167
193
158
159
181
176
187
169
149
127
140
161
142
170
177
169
191
129
147
179
168
